NAME JobShopModel
ROWS
 N  OBJ
 E  c0      
 E  c1      
 E  c2      
 E  c3      
 E  c4      
 E  c5      
 E  c6      
 E  c7      
 E  c8      
 E  c9      
 E  c10     
 E  c11     
 L  c12     
 L  c13     
 L  c14     
 L  c15     
 L  c16     
 L  c17     
 L  c18     
 L  c19     
 L  c20     
 L  c21     
 L  c22     
 L  c23     
 L  c24     
 L  c25     
 L  c26     
 L  c27     
 L  c28     
 L  c29     
 L  c30     
 L  c31     
 L  c32     
 L  c33     
 L  c34     
 L  c35     
 G  c36     
 G  c37     
 G  c38     
 G  c39     
 G  c40     
 G  c41     
 G  c42     
 G  c43     
 G  c44     
 G  c45     
 G  c46     
 G  c47     
 G  c48     
 G  c49     
 G  c50     
 G  c51     
 G  c52     
 G  c53     
 G  c54     
 G  c55     
 G  c56     
 G  c57     
 G  c58     
 G  c59     
 G  c60     
 G  c61     
 G  c62     
 G  c63     
 G  c64     
 G  c65     
 G  c66     
 G  c67     
 G  c68     
 G  c69     
 G  c70     
 G  c71     
 G  c72     
 G  c73     
 G  c74     
 G  c75     
 G  c76     
 G  c77     
 G  c78     
 G  c79     
 G  c80     
 G  c81     
 G  c82     
 G  c83     
 G  c84     
 G  c85     
 G  c86     
 G  c87     
 G  c88     
 G  c89     
 G  c90     
 G  c91     
 G  c92     
 G  c93     
 G  c94     
 G  c95     
 G  c96     
 G  c97     
 G  c98     
 G  c99     
 G  c100    
 G  c101    
 G  c102    
 G  c103    
 G  c104    
 G  c105    
 G  c106    
 G  c107    
 G  c108    
 G  c109    
 G  c110    
 G  c111    
 G  c112    
 G  c113    
 G  c114    
 G  c115    
 G  c116    
 G  c117    
 G  c118    
 G  c119    
 G  c120    
 G  c121    
 G  c122    
 G  c123    
 G  c124    
 G  c125    
 G  c126    
 G  c127    
 G  c128    
 G  c129    
 G  c130    
 G  c131    
 G  c132    
 G  c133    
 G  c134    
 G  c135    
 G  c136    
 G  c137    
 G  c138    
 G  c139    
 G  c140    
 G  c141    
 G  c142    
 G  c143    
 G  c144    
 G  c145    
 G  c146    
 G  c147    
 G  c148    
 G  c149    
 G  c150    
 G  c151    
 G  c152    
 G  c153    
 G  c154    
 G  c155    
 G  c156    
 G  c157    
 G  c158    
 G  c159    
 G  c160    
 G  c161    
 G  c162    
 G  c163    
 G  c164    
 G  c165    
 G  c166    
 G  c167    
 G  c168    
 G  c169    
 G  c170    
 G  c171    
 G  c172    
 G  c173    
 G  c174    
 G  c175    
 G  c176    
 G  c177    
 G  c178    
 G  c179    
 G  c180    
 G  c181    
 G  c182    
 G  c183    
 G  c184    
 G  c185    
 G  c186    
 G  c187    
 G  c188    
 G  c189    
 G  c190    
 G  c191    
 G  c192    
 G  c193    
 G  c194    
 G  c195    
 G  c196    
 G  c197    
 G  c198    
 G  c199    
 G  c200    
 G  c201    
 G  c202    
 G  c203    
 G  c204    
 G  c205    
 G  c206    
 L  c207    
 G  c208    
 L  c209    
 G  c210    
 L  c211    
 G  c212    
 L  c213    
 G  c214    
 L  c215    
 G  c216    
 L  c217    
 G  c218    
 L  c219    
 G  c220    
 L  c221    
 G  OF_constraint
COLUMNS
    MARKER    'MARKER'                 'INTORG'
    y[0,0,3]  c0        1
    y[0,0,3]  c12       -1000000
    y[0,0,3]  c36       -1000000
    y[0,0,3]  c37       -1000000
    y[0,0,3]  c40       -1000000
    y[0,0,3]  c41       -1000000
    y[0,0,3]  c42       -1000000
    y[0,0,3]  c43       -1000000
    y[0,0,3]  c68       -1000000
    y[0,0,3]  c69       -1000000
    y[0,0,3]  c151      -1
    y[0,0,3]  c206      5
    y[0,0,3]  c207      5
    y[0,0,4]  c0        1
    y[0,0,4]  c13       -1000000
    y[0,0,4]  c38       -1000000
    y[0,0,4]  c39       -1000000
    y[0,0,4]  c44       -1000000
    y[0,0,4]  c45       -1000000
    y[0,0,4]  c46       -1000000
    y[0,0,4]  c47       -1000000
    y[0,0,4]  c48       -1000000
    y[0,0,4]  c49       -1000000
    y[0,0,4]  c70       -1000000
    y[0,0,4]  c71       -1000000
    y[0,0,4]  c153      -1
    y[0,0,4]  c208      2
    y[0,0,4]  c209      2
    y[0,1,0]  c1        1
    y[0,1,0]  c14       -1000000
    y[0,1,0]  c56       -1000000
    y[0,1,0]  c57       -1000000
    y[0,1,0]  c60       -1000000
    y[0,1,0]  c61       -1000000
    y[0,1,0]  c64       -1000000
    y[0,1,0]  c65       -1000000
    y[0,1,0]  c155      -2
    y[0,1,0]  c198      -4
    y[0,1,2]  c1        1
    y[0,1,2]  c15       -1000000
    y[0,1,2]  c50       -1000000
    y[0,1,2]  c51       -1000000
    y[0,1,2]  c52       -1000000
    y[0,1,2]  c53       -1000000
    y[0,1,2]  c54       -1000000
    y[0,1,2]  c55       -1000000
    y[0,1,2]  c58       -1000000
    y[0,1,2]  c59       -1000000
    y[0,1,2]  c62       -1000000
    y[0,1,2]  c63       -1000000
    y[0,1,2]  c66       -1000000
    y[0,1,2]  c67       -1000000
    y[0,1,2]  c157      -2
    y[0,1,2]  c198      -5
    y[0,2,3]  c2        1
    y[0,2,3]  c16       -1000000
    y[0,2,3]  c36       -1000000
    y[0,2,3]  c37       -1000000
    y[0,2,3]  c68       -1000000
    y[0,2,3]  c69       -1000000
    y[0,2,3]  c72       -1000000
    y[0,2,3]  c73       -1000000
    y[0,2,3]  c74       -1000000
    y[0,2,3]  c75       -1000000
    y[0,2,3]  c199      -3
    y[0,2,4]  c2        1
    y[0,2,4]  c17       -1000000
    y[0,2,4]  c38       -1000000
    y[0,2,4]  c39       -1000000
    y[0,2,4]  c70       -1000000
    y[0,2,4]  c71       -1000000
    y[0,2,4]  c76       -1000000
    y[0,2,4]  c77       -1000000
    y[0,2,4]  c78       -1000000
    y[0,2,4]  c79       -1000000
    y[0,2,4]  c80       -1000000
    y[0,2,4]  c81       -1000000
    y[0,2,4]  c199      -4
    y[1,0,2]  c3        1
    y[1,0,2]  c18       -1000000
    y[1,0,2]  c50       -1000000
    y[1,0,2]  c51       -1000000
    y[1,0,2]  c82       -1000000
    y[1,0,2]  c83       -1000000
    y[1,0,2]  c86       -1000000
    y[1,0,2]  c87       -1000000
    y[1,0,2]  c88       -1000000
    y[1,0,2]  c89       -1000000
    y[1,0,2]  c90       -1000000
    y[1,0,2]  c91       -1000000
    y[1,0,2]  c92       -1000000
    y[1,0,2]  c93       -1000000
    y[1,0,2]  c94       -1000000
    y[1,0,2]  c95       -1000000
    y[1,0,2]  c163      -3
    y[1,0,2]  c210      5
    y[1,0,2]  c211      5
    y[1,0,3]  c3        1
    y[1,0,3]  c19       -1000000
    y[1,0,3]  c40       -1000000
    y[1,0,3]  c41       -1000000
    y[1,0,3]  c72       -1000000
    y[1,0,3]  c73       -1000000
    y[1,0,3]  c84       -1000000
    y[1,0,3]  c85       -1000000
    y[1,0,3]  c96       -1000000
    y[1,0,3]  c97       -1000000
    y[1,0,3]  c165      -3
    y[1,0,3]  c212      5
    y[1,0,3]  c213      5
    y[1,1,2]  c4        1
    y[1,1,2]  c20       -1000000
    y[1,1,2]  c52       -1000000
    y[1,1,2]  c53       -1000000
    y[1,1,2]  c82       -1000000
    y[1,1,2]  c83       -1000000
    y[1,1,2]  c94       -1000000
    y[1,1,2]  c95       -1000000
    y[1,1,2]  c98       -1000000
    y[1,1,2]  c99       -1000000
    y[1,1,2]  c100      -1000000
    y[1,1,2]  c101      -1000000
    y[1,1,2]  c102      -1000000
    y[1,1,2]  c103      -1000000
    y[1,1,2]  c104      -1000000
    y[1,1,2]  c105      -1000000
    y[1,1,2]  c167      -1
    y[1,1,2]  c200      -2
    y[1,1,3]  c4        1
    y[1,1,3]  c21       -1000000
    y[1,1,3]  c42       -1000000
    y[1,1,3]  c43       -1000000
    y[1,1,3]  c74       -1000000
    y[1,1,3]  c75       -1000000
    y[1,1,3]  c84       -1000000
    y[1,1,3]  c85       -1000000
    y[1,1,3]  c96       -1000000
    y[1,1,3]  c97       -1000000
    y[1,1,3]  c169      -1
    y[1,1,3]  c200      -4
    y[1,2,1]  c5        1
    y[1,2,1]  c22       -1000000
    y[1,2,1]  c106      -1000000
    y[1,2,1]  c107      -1000000
    y[1,2,1]  c110      -1000000
    y[1,2,1]  c111      -1000000
    y[1,2,1]  c112      -1000000
    y[1,2,1]  c113      -1000000
    y[1,2,1]  c201      -2
    y[1,2,4]  c5        1
    y[1,2,4]  c23       -1000000
    y[1,2,4]  c44       -1000000
    y[1,2,4]  c45       -1000000
    y[1,2,4]  c76       -1000000
    y[1,2,4]  c77       -1000000
    y[1,2,4]  c108      -1000000
    y[1,2,4]  c109      -1000000
    y[1,2,4]  c114      -1000000
    y[1,2,4]  c115      -1000000
    y[1,2,4]  c201      -2
    y[2,0,1]  c6        1
    y[2,0,1]  c24       -1000000
    y[2,0,1]  c106      -1000000
    y[2,0,1]  c107      -1000000
    y[2,0,1]  c116      -1000000
    y[2,0,1]  c117      -1000000
    y[2,0,1]  c118      -1000000
    y[2,0,1]  c119      -1000000
    y[2,0,1]  c122      -1000000
    y[2,0,1]  c123      -1000000
    y[2,0,1]  c175      -2
    y[2,0,1]  c214      2
    y[2,0,1]  c215      2
    y[2,0,4]  c6        1
    y[2,0,4]  c25       -1000000
    y[2,0,4]  c46       -1000000
    y[2,0,4]  c47       -1000000
    y[2,0,4]  c78       -1000000
    y[2,0,4]  c79       -1000000
    y[2,0,4]  c108      -1000000
    y[2,0,4]  c109      -1000000
    y[2,0,4]  c120      -1000000
    y[2,0,4]  c121      -1000000
    y[2,0,4]  c177      -2
    y[2,0,4]  c216      5
    y[2,0,4]  c217      5
    y[2,1,1]  c7        1
    y[2,1,1]  c26       -1000000
    y[2,1,1]  c110      -1000000
    y[2,1,1]  c111      -1000000
    y[2,1,1]  c116      -1000000
    y[2,1,1]  c117      -1000000
    y[2,1,1]  c122      -1000000
    y[2,1,1]  c123      -1000000
    y[2,1,1]  c126      -1000000
    y[2,1,1]  c127      -1000000
    y[2,1,1]  c179      -1
    y[2,1,1]  c202      -4
    y[2,1,2]  c7        1
    y[2,1,2]  c27       -1000000
    y[2,1,2]  c54       -1000000
    y[2,1,2]  c55       -1000000
    y[2,1,2]  c86       -1000000
    y[2,1,2]  c87       -1000000
    y[2,1,2]  c98       -1000000
    y[2,1,2]  c99       -1000000
    y[2,1,2]  c124      -1000000
    y[2,1,2]  c125      -1000000
    y[2,1,2]  c128      -1000000
    y[2,1,2]  c129      -1000000
    y[2,1,2]  c130      -1000000
    y[2,1,2]  c131      -1000000
    y[2,1,2]  c132      -1000000
    y[2,1,2]  c133      -1000000
    y[2,1,2]  c181      -1
    y[2,1,2]  c202      -5
    y[2,2,0]  c8        1
    y[2,2,0]  c28       -1000000
    y[2,2,0]  c56       -1000000
    y[2,2,0]  c57       -1000000
    y[2,2,0]  c134      -1000000
    y[2,2,0]  c135      -1000000
    y[2,2,0]  c138      -1000000
    y[2,2,0]  c139      -1000000
    y[2,2,0]  c203      -3
    y[2,2,2]  c8        1
    y[2,2,2]  c29       -1000000
    y[2,2,2]  c58       -1000000
    y[2,2,2]  c59       -1000000
    y[2,2,2]  c88       -1000000
    y[2,2,2]  c89       -1000000
    y[2,2,2]  c100      -1000000
    y[2,2,2]  c101      -1000000
    y[2,2,2]  c124      -1000000
    y[2,2,2]  c125      -1000000
    y[2,2,2]  c132      -1000000
    y[2,2,2]  c133      -1000000
    y[2,2,2]  c136      -1000000
    y[2,2,2]  c137      -1000000
    y[2,2,2]  c140      -1000000
    y[2,2,2]  c141      -1000000
    y[2,2,2]  c203      -4
    y[3,0,1]  c9        1
    y[3,0,1]  c30       -1000000
    y[3,0,1]  c112      -1000000
    y[3,0,1]  c113      -1000000
    y[3,0,1]  c118      -1000000
    y[3,0,1]  c119      -1000000
    y[3,0,1]  c126      -1000000
    y[3,0,1]  c127      -1000000
    y[3,0,1]  c187      -2
    y[3,0,1]  c218      3
    y[3,0,1]  c219      3
    y[3,0,4]  c9        1
    y[3,0,4]  c31       -1000000
    y[3,0,4]  c48       -1000000
    y[3,0,4]  c49       -1000000
    y[3,0,4]  c80       -1000000
    y[3,0,4]  c81       -1000000
    y[3,0,4]  c114      -1000000
    y[3,0,4]  c115      -1000000
    y[3,0,4]  c120      -1000000
    y[3,0,4]  c121      -1000000
    y[3,0,4]  c189      -2
    y[3,0,4]  c220      2
    y[3,0,4]  c221      2
    y[3,1,0]  c10       1
    y[3,1,0]  c32       -1000000
    y[3,1,0]  c60       -1000000
    y[3,1,0]  c61       -1000000
    y[3,1,0]  c134      -1000000
    y[3,1,0]  c135      -1000000
    y[3,1,0]  c142      -1000000
    y[3,1,0]  c143      -1000000
    y[3,1,0]  c146      -1000000
    y[3,1,0]  c147      -1000000
    y[3,1,0]  c191      -3
    y[3,1,0]  c204      -3
    y[3,1,2]  c10       1
    y[3,1,2]  c33       -1000000
    y[3,1,2]  c62       -1000000
    y[3,1,2]  c63       -1000000
    y[3,1,2]  c90       -1000000
    y[3,1,2]  c91       -1000000
    y[3,1,2]  c102      -1000000
    y[3,1,2]  c103      -1000000
    y[3,1,2]  c128      -1000000
    y[3,1,2]  c129      -1000000
    y[3,1,2]  c136      -1000000
    y[3,1,2]  c137      -1000000
    y[3,1,2]  c144      -1000000
    y[3,1,2]  c145      -1000000
    y[3,1,2]  c148      -1000000
    y[3,1,2]  c149      -1000000
    y[3,1,2]  c193      -3
    y[3,1,2]  c204      -3
    y[3,2,0]  c11       1
    y[3,2,0]  c34       -1000000
    y[3,2,0]  c64       -1000000
    y[3,2,0]  c65       -1000000
    y[3,2,0]  c138      -1000000
    y[3,2,0]  c139      -1000000
    y[3,2,0]  c142      -1000000
    y[3,2,0]  c143      -1000000
    y[3,2,0]  c146      -1000000
    y[3,2,0]  c147      -1000000
    y[3,2,0]  c195      -2
    y[3,2,0]  c205      -3
    y[3,2,2]  c11       1
    y[3,2,2]  c35       -1000000
    y[3,2,2]  c66       -1000000
    y[3,2,2]  c67       -1000000
    y[3,2,2]  c92       -1000000
    y[3,2,2]  c93       -1000000
    y[3,2,2]  c104      -1000000
    y[3,2,2]  c105      -1000000
    y[3,2,2]  c130      -1000000
    y[3,2,2]  c131      -1000000
    y[3,2,2]  c140      -1000000
    y[3,2,2]  c141      -1000000
    y[3,2,2]  c144      -1000000
    y[3,2,2]  c145      -1000000
    y[3,2,2]  c148      -1000000
    y[3,2,2]  c149      -1000000
    y[3,2,2]  c197      -2
    y[3,2,2]  c205      -5
    x[0,0,0,0]  OBJ       0
    x[0,0,0,1]  OBJ       0
    x[0,0,0,2]  c36       -1000000
    x[0,0,0,2]  c37       1000000
    x[0,0,0,2]  c38       -1000000
    x[0,0,0,2]  c39       1000000
    x[0,0,1,0]  c40       -1000000
    x[0,0,1,0]  c41       1000000
    x[0,0,1,1]  c42       -1000000
    x[0,0,1,1]  c43       1000000
    x[0,0,1,2]  c44       -1000000
    x[0,0,1,2]  c45       1000000
    x[0,0,2,0]  c46       -1000000
    x[0,0,2,0]  c47       1000000
    x[0,0,2,1]  OBJ       0
    x[0,0,2,2]  OBJ       0
    x[0,0,3,0]  c48       -1000000
    x[0,0,3,0]  c49       1000000
    x[0,0,3,1]  OBJ       0
    x[0,0,3,2]  OBJ       0
    x[0,1,0,0]  OBJ       0
    x[0,1,0,1]  OBJ       0
    x[0,1,0,2]  OBJ       0
    x[0,1,1,0]  c50       -1000000
    x[0,1,1,0]  c51       1000000
    x[0,1,1,1]  c52       -1000000
    x[0,1,1,1]  c53       1000000
    x[0,1,1,2]  OBJ       0
    x[0,1,2,0]  OBJ       0
    x[0,1,2,1]  c54       -1000000
    x[0,1,2,1]  c55       1000000
    x[0,1,2,2]  c56       -1000000
    x[0,1,2,2]  c57       1000000
    x[0,1,2,2]  c58       -1000000
    x[0,1,2,2]  c59       1000000
    x[0,1,3,0]  OBJ       0
    x[0,1,3,1]  c60       -1000000
    x[0,1,3,1]  c61       1000000
    x[0,1,3,1]  c62       -1000000
    x[0,1,3,1]  c63       1000000
    x[0,1,3,2]  c64       -1000000
    x[0,1,3,2]  c65       1000000
    x[0,1,3,2]  c66       -1000000
    x[0,1,3,2]  c67       1000000
    x[0,2,0,0]  c68       -1000000
    x[0,2,0,0]  c69       1000000
    x[0,2,0,0]  c70       -1000000
    x[0,2,0,0]  c71       1000000
    x[0,2,0,1]  OBJ       0
    x[0,2,0,2]  OBJ       0
    x[0,2,1,0]  c72       -1000000
    x[0,2,1,0]  c73       1000000
    x[0,2,1,1]  c74       -1000000
    x[0,2,1,1]  c75       1000000
    x[0,2,1,2]  c76       -1000000
    x[0,2,1,2]  c77       1000000
    x[0,2,2,0]  c78       -1000000
    x[0,2,2,0]  c79       1000000
    x[0,2,2,1]  OBJ       0
    x[0,2,2,2]  OBJ       0
    x[0,2,3,0]  c80       -1000000
    x[0,2,3,0]  c81       1000000
    x[0,2,3,1]  OBJ       0
    x[0,2,3,2]  OBJ       0
    x[1,0,0,0]  OBJ       0
    x[1,0,0,1]  OBJ       0
    x[1,0,0,2]  OBJ       0
    x[1,0,1,0]  OBJ       0
    x[1,0,1,1]  c82       -1000000
    x[1,0,1,1]  c83       1000000
    x[1,0,1,1]  c84       -1000000
    x[1,0,1,1]  c85       1000000
    x[1,0,1,2]  OBJ       0
    x[1,0,2,0]  OBJ       0
    x[1,0,2,1]  c86       -1000000
    x[1,0,2,1]  c87       1000000
    x[1,0,2,2]  c88       -1000000
    x[1,0,2,2]  c89       1000000
    x[1,0,3,0]  OBJ       0
    x[1,0,3,1]  c90       -1000000
    x[1,0,3,1]  c91       1000000
    x[1,0,3,2]  c92       -1000000
    x[1,0,3,2]  c93       1000000
    x[1,1,0,0]  OBJ       0
    x[1,1,0,1]  OBJ       0
    x[1,1,0,2]  OBJ       0
    x[1,1,1,0]  c94       -1000000
    x[1,1,1,0]  c95       1000000
    x[1,1,1,0]  c96       -1000000
    x[1,1,1,0]  c97       1000000
    x[1,1,1,1]  OBJ       0
    x[1,1,1,2]  OBJ       0
    x[1,1,2,0]  OBJ       0
    x[1,1,2,1]  c98       -1000000
    x[1,1,2,1]  c99       1000000
    x[1,1,2,2]  c100      -1000000
    x[1,1,2,2]  c101      1000000
    x[1,1,3,0]  OBJ       0
    x[1,1,3,1]  c102      -1000000
    x[1,1,3,1]  c103      1000000
    x[1,1,3,2]  c104      -1000000
    x[1,1,3,2]  c105      1000000
    x[1,2,0,0]  OBJ       0
    x[1,2,0,1]  OBJ       0
    x[1,2,0,2]  OBJ       0
    x[1,2,1,0]  OBJ       0
    x[1,2,1,1]  OBJ       0
    x[1,2,1,2]  OBJ       0
    x[1,2,2,0]  c106      -1000000
    x[1,2,2,0]  c107      1000000
    x[1,2,2,0]  c108      -1000000
    x[1,2,2,0]  c109      1000000
    x[1,2,2,1]  c110      -1000000
    x[1,2,2,1]  c111      1000000
    x[1,2,2,2]  OBJ       0
    x[1,2,3,0]  c112      -1000000
    x[1,2,3,0]  c113      1000000
    x[1,2,3,0]  c114      -1000000
    x[1,2,3,0]  c115      1000000
    x[1,2,3,1]  OBJ       0
    x[1,2,3,2]  OBJ       0
    x[2,0,0,0]  OBJ       0
    x[2,0,0,1]  OBJ       0
    x[2,0,0,2]  OBJ       0
    x[2,0,1,0]  OBJ       0
    x[2,0,1,1]  OBJ       0
    x[2,0,1,2]  OBJ       0
    x[2,0,2,0]  OBJ       0
    x[2,0,2,1]  c116      -1000000
    x[2,0,2,1]  c117      1000000
    x[2,0,2,2]  OBJ       0
    x[2,0,3,0]  c118      -1000000
    x[2,0,3,0]  c119      1000000
    x[2,0,3,0]  c120      -1000000
    x[2,0,3,0]  c121      1000000
    x[2,0,3,1]  OBJ       0
    x[2,0,3,2]  OBJ       0
    x[2,1,0,0]  OBJ       0
    x[2,1,0,1]  OBJ       0
    x[2,1,0,2]  OBJ       0
    x[2,1,1,0]  OBJ       0
    x[2,1,1,1]  OBJ       0
    x[2,1,1,2]  OBJ       0
    x[2,1,2,0]  c122      -1000000
    x[2,1,2,0]  c123      1000000
    x[2,1,2,1]  OBJ       0
    x[2,1,2,2]  c124      -1000000
    x[2,1,2,2]  c125      1000000
    x[2,1,3,0]  c126      -1000000
    x[2,1,3,0]  c127      1000000
    x[2,1,3,1]  c128      -1000000
    x[2,1,3,1]  c129      1000000
    x[2,1,3,2]  c130      -1000000
    x[2,1,3,2]  c131      1000000
    x[2,2,0,0]  OBJ       0
    x[2,2,0,1]  OBJ       0
    x[2,2,0,2]  OBJ       0
    x[2,2,1,0]  OBJ       0
    x[2,2,1,1]  OBJ       0
    x[2,2,1,2]  OBJ       0
    x[2,2,2,0]  OBJ       0
    x[2,2,2,1]  c132      -1000000
    x[2,2,2,1]  c133      1000000
    x[2,2,2,2]  OBJ       0
    x[2,2,3,0]  OBJ       0
    x[2,2,3,1]  c134      -1000000
    x[2,2,3,1]  c135      1000000
    x[2,2,3,1]  c136      -1000000
    x[2,2,3,1]  c137      1000000
    x[2,2,3,2]  c138      -1000000
    x[2,2,3,2]  c139      1000000
    x[2,2,3,2]  c140      -1000000
    x[2,2,3,2]  c141      1000000
    x[3,0,0,0]  OBJ       0
    x[3,0,0,1]  OBJ       0
    x[3,0,0,2]  OBJ       0
    x[3,0,1,0]  OBJ       0
    x[3,0,1,1]  OBJ       0
    x[3,0,1,2]  OBJ       0
    x[3,0,2,0]  OBJ       0
    x[3,0,2,1]  OBJ       0
    x[3,0,2,2]  OBJ       0
    x[3,0,3,0]  OBJ       0
    x[3,0,3,1]  OBJ       0
    x[3,0,3,2]  OBJ       0
    x[3,1,0,0]  OBJ       0
    x[3,1,0,1]  OBJ       0
    x[3,1,0,2]  OBJ       0
    x[3,1,1,0]  OBJ       0
    x[3,1,1,1]  OBJ       0
    x[3,1,1,2]  OBJ       0
    x[3,1,2,0]  OBJ       0
    x[3,1,2,1]  OBJ       0
    x[3,1,2,2]  OBJ       0
    x[3,1,3,0]  OBJ       0
    x[3,1,3,1]  OBJ       0
    x[3,1,3,2]  c142      -1000000
    x[3,1,3,2]  c143      1000000
    x[3,1,3,2]  c144      -1000000
    x[3,1,3,2]  c145      1000000
    x[3,2,0,0]  OBJ       0
    x[3,2,0,1]  OBJ       0
    x[3,2,0,2]  OBJ       0
    x[3,2,1,0]  OBJ       0
    x[3,2,1,1]  OBJ       0
    x[3,2,1,2]  OBJ       0
    x[3,2,2,0]  OBJ       0
    x[3,2,2,1]  OBJ       0
    x[3,2,2,2]  OBJ       0
    x[3,2,3,0]  OBJ       0
    x[3,2,3,1]  c146      -1000000
    x[3,2,3,1]  c147      1000000
    x[3,2,3,1]  c148      -1000000
    x[3,2,3,1]  c149      1000000
    x[3,2,3,2]  OBJ       0
    MARKER    'MARKER'                 'INTEND'
    s[0,0,3]  c12       1
    s[0,0,3]  c36       1
    s[0,0,3]  c37       -1
    s[0,0,3]  c40       1
    s[0,0,3]  c41       -1
    s[0,0,3]  c42       1
    s[0,0,3]  c43       -1
    s[0,0,3]  c68       -1
    s[0,0,3]  c69       1
    s[0,0,3]  c150      1
    s[0,0,3]  c151      1
    s[0,0,3]  c198      1
    s[0,0,3]  c206      1
    s[0,0,3]  c207      1
    s[0,0,4]  c13       1
    s[0,0,4]  c38       1
    s[0,0,4]  c39       -1
    s[0,0,4]  c44       1
    s[0,0,4]  c45       -1
    s[0,0,4]  c46       1
    s[0,0,4]  c47       -1
    s[0,0,4]  c48       1
    s[0,0,4]  c49       -1
    s[0,0,4]  c70       -1
    s[0,0,4]  c71       1
    s[0,0,4]  c152      1
    s[0,0,4]  c153      1
    s[0,0,4]  c198      1
    s[0,0,4]  c208      1
    s[0,0,4]  c209      1
    s[0,1,0]  c14       1
    s[0,1,0]  c56       1
    s[0,1,0]  c57       -1
    s[0,1,0]  c60       1
    s[0,1,0]  c61       -1
    s[0,1,0]  c64       1
    s[0,1,0]  c65       -1
    s[0,1,0]  c154      1
    s[0,1,0]  c155      1
    s[0,1,0]  c198      -1
    s[0,1,0]  c199      1
    s[0,1,2]  c15       1
    s[0,1,2]  c50       1
    s[0,1,2]  c51       -1
    s[0,1,2]  c52       1
    s[0,1,2]  c53       -1
    s[0,1,2]  c54       1
    s[0,1,2]  c55       -1
    s[0,1,2]  c58       1
    s[0,1,2]  c59       -1
    s[0,1,2]  c62       1
    s[0,1,2]  c63       -1
    s[0,1,2]  c66       1
    s[0,1,2]  c67       -1
    s[0,1,2]  c156      1
    s[0,1,2]  c157      1
    s[0,1,2]  c198      -1
    s[0,1,2]  c199      1
    s[0,2,3]  c16       1
    s[0,2,3]  c36       -1
    s[0,2,3]  c37       1
    s[0,2,3]  c68       1
    s[0,2,3]  c69       -1
    s[0,2,3]  c72       1
    s[0,2,3]  c73       -1
    s[0,2,3]  c74       1
    s[0,2,3]  c75       -1
    s[0,2,3]  c158      1
    s[0,2,3]  c159      1
    s[0,2,3]  c199      -1
    s[0,2,4]  c17       1
    s[0,2,4]  c38       -1
    s[0,2,4]  c39       1
    s[0,2,4]  c70       1
    s[0,2,4]  c71       -1
    s[0,2,4]  c76       1
    s[0,2,4]  c77       -1
    s[0,2,4]  c78       1
    s[0,2,4]  c79       -1
    s[0,2,4]  c80       1
    s[0,2,4]  c81       -1
    s[0,2,4]  c160      1
    s[0,2,4]  c161      1
    s[0,2,4]  c199      -1
    s[1,0,2]  c18       1
    s[1,0,2]  c50       -1
    s[1,0,2]  c51       1
    s[1,0,2]  c82       1
    s[1,0,2]  c83       -1
    s[1,0,2]  c86       1
    s[1,0,2]  c87       -1
    s[1,0,2]  c88       1
    s[1,0,2]  c89       -1
    s[1,0,2]  c90       1
    s[1,0,2]  c91       -1
    s[1,0,2]  c92       1
    s[1,0,2]  c93       -1
    s[1,0,2]  c94       -1
    s[1,0,2]  c95       1
    s[1,0,2]  c162      1
    s[1,0,2]  c163      1
    s[1,0,2]  c200      1
    s[1,0,2]  c210      1
    s[1,0,2]  c211      1
    s[1,0,3]  c19       1
    s[1,0,3]  c40       -1
    s[1,0,3]  c41       1
    s[1,0,3]  c72       -1
    s[1,0,3]  c73       1
    s[1,0,3]  c84       1
    s[1,0,3]  c85       -1
    s[1,0,3]  c96       -1
    s[1,0,3]  c97       1
    s[1,0,3]  c164      1
    s[1,0,3]  c165      1
    s[1,0,3]  c200      1
    s[1,0,3]  c212      1
    s[1,0,3]  c213      1
    s[1,1,2]  c20       1
    s[1,1,2]  c52       -1
    s[1,1,2]  c53       1
    s[1,1,2]  c82       -1
    s[1,1,2]  c83       1
    s[1,1,2]  c94       1
    s[1,1,2]  c95       -1
    s[1,1,2]  c98       1
    s[1,1,2]  c99       -1
    s[1,1,2]  c100      1
    s[1,1,2]  c101      -1
    s[1,1,2]  c102      1
    s[1,1,2]  c103      -1
    s[1,1,2]  c104      1
    s[1,1,2]  c105      -1
    s[1,1,2]  c166      1
    s[1,1,2]  c167      1
    s[1,1,2]  c200      -1
    s[1,1,2]  c201      1
    s[1,1,3]  c21       1
    s[1,1,3]  c42       -1
    s[1,1,3]  c43       1
    s[1,1,3]  c74       -1
    s[1,1,3]  c75       1
    s[1,1,3]  c84       -1
    s[1,1,3]  c85       1
    s[1,1,3]  c96       1
    s[1,1,3]  c97       -1
    s[1,1,3]  c168      1
    s[1,1,3]  c169      1
    s[1,1,3]  c200      -1
    s[1,1,3]  c201      1
    s[1,2,1]  c22       1
    s[1,2,1]  c106      1
    s[1,2,1]  c107      -1
    s[1,2,1]  c110      1
    s[1,2,1]  c111      -1
    s[1,2,1]  c112      1
    s[1,2,1]  c113      -1
    s[1,2,1]  c170      1
    s[1,2,1]  c171      1
    s[1,2,1]  c201      -1
    s[1,2,4]  c23       1
    s[1,2,4]  c44       -1
    s[1,2,4]  c45       1
    s[1,2,4]  c76       -1
    s[1,2,4]  c77       1
    s[1,2,4]  c108      1
    s[1,2,4]  c109      -1
    s[1,2,4]  c114      1
    s[1,2,4]  c115      -1
    s[1,2,4]  c172      1
    s[1,2,4]  c173      1
    s[1,2,4]  c201      -1
    s[2,0,1]  c24       1
    s[2,0,1]  c106      -1
    s[2,0,1]  c107      1
    s[2,0,1]  c116      1
    s[2,0,1]  c117      -1
    s[2,0,1]  c118      1
    s[2,0,1]  c119      -1
    s[2,0,1]  c122      -1
    s[2,0,1]  c123      1
    s[2,0,1]  c174      1
    s[2,0,1]  c175      1
    s[2,0,1]  c202      1
    s[2,0,1]  c203      1
    s[2,0,1]  c214      1
    s[2,0,1]  c215      1
    s[2,0,4]  c25       1
    s[2,0,4]  c46       -1
    s[2,0,4]  c47       1
    s[2,0,4]  c78       -1
    s[2,0,4]  c79       1
    s[2,0,4]  c108      -1
    s[2,0,4]  c109      1
    s[2,0,4]  c120      1
    s[2,0,4]  c121      -1
    s[2,0,4]  c176      1
    s[2,0,4]  c177      1
    s[2,0,4]  c202      1
    s[2,0,4]  c203      1
    s[2,0,4]  c216      1
    s[2,0,4]  c217      1
    s[2,1,1]  c26       1
    s[2,1,1]  c110      -1
    s[2,1,1]  c111      1
    s[2,1,1]  c116      -1
    s[2,1,1]  c117      1
    s[2,1,1]  c122      1
    s[2,1,1]  c123      -1
    s[2,1,1]  c126      1
    s[2,1,1]  c127      -1
    s[2,1,1]  c178      1
    s[2,1,1]  c179      1
    s[2,1,1]  c202      -1
    s[2,1,2]  c27       1
    s[2,1,2]  c54       -1
    s[2,1,2]  c55       1
    s[2,1,2]  c86       -1
    s[2,1,2]  c87       1
    s[2,1,2]  c98       -1
    s[2,1,2]  c99       1
    s[2,1,2]  c124      1
    s[2,1,2]  c125      -1
    s[2,1,2]  c128      1
    s[2,1,2]  c129      -1
    s[2,1,2]  c130      1
    s[2,1,2]  c131      -1
    s[2,1,2]  c132      -1
    s[2,1,2]  c133      1
    s[2,1,2]  c180      1
    s[2,1,2]  c181      1
    s[2,1,2]  c202      -1
    s[2,2,0]  c28       1
    s[2,2,0]  c56       -1
    s[2,2,0]  c57       1
    s[2,2,0]  c134      1
    s[2,2,0]  c135      -1
    s[2,2,0]  c138      1
    s[2,2,0]  c139      -1
    s[2,2,0]  c182      1
    s[2,2,0]  c183      1
    s[2,2,0]  c203      -1
    s[2,2,2]  c29       1
    s[2,2,2]  c58       -1
    s[2,2,2]  c59       1
    s[2,2,2]  c88       -1
    s[2,2,2]  c89       1
    s[2,2,2]  c100      -1
    s[2,2,2]  c101      1
    s[2,2,2]  c124      -1
    s[2,2,2]  c125      1
    s[2,2,2]  c132      1
    s[2,2,2]  c133      -1
    s[2,2,2]  c136      1
    s[2,2,2]  c137      -1
    s[2,2,2]  c140      1
    s[2,2,2]  c141      -1
    s[2,2,2]  c184      1
    s[2,2,2]  c185      1
    s[2,2,2]  c203      -1
    s[3,0,1]  c30       1
    s[3,0,1]  c112      -1
    s[3,0,1]  c113      1
    s[3,0,1]  c118      -1
    s[3,0,1]  c119      1
    s[3,0,1]  c126      -1
    s[3,0,1]  c127      1
    s[3,0,1]  c186      1
    s[3,0,1]  c187      1
    s[3,0,1]  c204      1
    s[3,0,1]  c218      1
    s[3,0,1]  c219      1
    s[3,0,4]  c31       1
    s[3,0,4]  c48       -1
    s[3,0,4]  c49       1
    s[3,0,4]  c80       -1
    s[3,0,4]  c81       1
    s[3,0,4]  c114      -1
    s[3,0,4]  c115      1
    s[3,0,4]  c120      -1
    s[3,0,4]  c121      1
    s[3,0,4]  c188      1
    s[3,0,4]  c189      1
    s[3,0,4]  c204      1
    s[3,0,4]  c220      1
    s[3,0,4]  c221      1
    s[3,1,0]  c32       1
    s[3,1,0]  c60       -1
    s[3,1,0]  c61       1
    s[3,1,0]  c134      -1
    s[3,1,0]  c135      1
    s[3,1,0]  c142      1
    s[3,1,0]  c143      -1
    s[3,1,0]  c146      -1
    s[3,1,0]  c147      1
    s[3,1,0]  c190      1
    s[3,1,0]  c191      1
    s[3,1,0]  c204      -1
    s[3,1,0]  c205      1
    s[3,1,2]  c33       1
    s[3,1,2]  c62       -1
    s[3,1,2]  c63       1
    s[3,1,2]  c90       -1
    s[3,1,2]  c91       1
    s[3,1,2]  c102      -1
    s[3,1,2]  c103      1
    s[3,1,2]  c128      -1
    s[3,1,2]  c129      1
    s[3,1,2]  c136      -1
    s[3,1,2]  c137      1
    s[3,1,2]  c144      1
    s[3,1,2]  c145      -1
    s[3,1,2]  c148      -1
    s[3,1,2]  c149      1
    s[3,1,2]  c192      1
    s[3,1,2]  c193      1
    s[3,1,2]  c204      -1
    s[3,1,2]  c205      1
    s[3,2,0]  c34       1
    s[3,2,0]  c64       -1
    s[3,2,0]  c65       1
    s[3,2,0]  c138      -1
    s[3,2,0]  c139      1
    s[3,2,0]  c142      -1
    s[3,2,0]  c143      1
    s[3,2,0]  c146      1
    s[3,2,0]  c147      -1
    s[3,2,0]  c194      1
    s[3,2,0]  c195      1
    s[3,2,0]  c205      -1
    s[3,2,2]  c35       1
    s[3,2,2]  c66       -1
    s[3,2,2]  c67       1
    s[3,2,2]  c92       -1
    s[3,2,2]  c93       1
    s[3,2,2]  c104      -1
    s[3,2,2]  c105      1
    s[3,2,2]  c130      -1
    s[3,2,2]  c131      1
    s[3,2,2]  c140      -1
    s[3,2,2]  c141      1
    s[3,2,2]  c144      -1
    s[3,2,2]  c145      1
    s[3,2,2]  c148      1
    s[3,2,2]  c149      -1
    s[3,2,2]  c196      1
    s[3,2,2]  c197      1
    s[3,2,2]  c205      -1
    MARKER    'MARKER'                 'INTORG'
    Z_FO      OBJ       1
    Z_FO      OF_constraint  1
    C193      c206      -1000000
    C193      c207      -1000000
    C193      OF_constraint  7
    C194      c208      -1000000
    C194      c209      -1000000
    C194      OF_constraint  10
    C195      c210      -1000000
    C195      c211      -1000000
    C195      OF_constraint  10
    C196      c212      -1000000
    C196      c213      -1000000
    C196      OF_constraint  10
    C197      c214      -1000000
    C197      c215      -1000000
    C197      OF_constraint  4
    C198      c216      -1000000
    C198      c217      -1000000
    C198      OF_constraint  1
    C199      c218      -1000000
    C199      c219      -1000000
    C199      OF_constraint  3
    C200      c220      -1000000
    C200      c221      -1000000
    C200      OF_constraint  4
    MARKER    'MARKER'                 'INTEND'
RHS
    RHS1      c0        1
    RHS1      c1        1
    RHS1      c2        1
    RHS1      c3        1
    RHS1      c4        1
    RHS1      c5        1
    RHS1      c6        1
    RHS1      c7        1
    RHS1      c8        1
    RHS1      c9        1
    RHS1      c10       1
    RHS1      c11       1
    RHS1      c36       -2999977
    RHS1      c37       -1999991
    RHS1      c38       -2999976
    RHS1      c39       -1999978
    RHS1      c40       -2999980
    RHS1      c41       -1999991
    RHS1      c42       -2999992
    RHS1      c43       -1999980
    RHS1      c44       -2999986
    RHS1      c45       -1999978
    RHS1      c46       -2999986
    RHS1      c47       -1999990
    RHS1      c48       -2999994
    RHS1      c49       -1999973
    RHS1      c50       -2999993
    RHS1      c51       -1999989
    RHS1      c52       -2999993
    RHS1      c53       -1999991
    RHS1      c54       -2999980
    RHS1      c55       -1999987
    RHS1      c56       -2999988
    RHS1      c57       -1999993
    RHS1      c58       -2999976
    RHS1      c59       -1999991
    RHS1      c60       -2999993
    RHS1      c61       -1999991
    RHS1      c62       -2999989
    RHS1      c63       -1999975
    RHS1      c64       -2999987
    RHS1      c65       -1999981
    RHS1      c66       -2999975
    RHS1      c67       -1999985
    RHS1      c68       -2999991
    RHS1      c69       -1999977
    RHS1      c70       -2999978
    RHS1      c71       -1999976
    RHS1      c72       -2999989
    RHS1      c73       -1999981
    RHS1      c74       -2999986
    RHS1      c75       -1999991
    RHS1      c76       -2999994
    RHS1      c77       -1999992
    RHS1      c78       -2999985
    RHS1      c79       -1999993
    RHS1      c80       -2999996
    RHS1      c81       -1999987
    RHS1      c82       -2999992
    RHS1      c83       -1999991
    RHS1      c84       -2999992
    RHS1      c85       -1999987
    RHS1      c86       -2999987
    RHS1      c87       -1999989
    RHS1      c88       -2999986
    RHS1      c89       -1999993
    RHS1      c90       -2999994
    RHS1      c91       -1999989
    RHS1      c92       -2999992
    RHS1      c93       -1999990
    RHS1      c94       -2999991
    RHS1      c95       -1999992
    RHS1      c96       -2999987
    RHS1      c97       -1999992
    RHS1      c98       -2999992
    RHS1      c99       -1999993
    RHS1      c100      -2999991
    RHS1      c101      -1999996
    RHS1      c102      -2999991
    RHS1      c103      -1999986
    RHS1      c104      -2999987
    RHS1      c105      -1999986
    RHS1      c106      -2999990
    RHS1      c107      -1999993
    RHS1      c108      -2999989
    RHS1      c109      -1999994
    RHS1      c110      -2999987
    RHS1      c111      -1999978
    RHS1      c112      -2999993
    RHS1      c113      -1999978
    RHS1      c114      -2999983
    RHS1      c115      -1999983
    RHS1      c116      -2999990
    RHS1      c117      -1999982
    RHS1      c118      -2999985
    RHS1      c119      -1999978
    RHS1      c120      -2999994
    RHS1      c121      -1999986
    RHS1      c122      -2999982
    RHS1      c123      -1999990
    RHS1      c124      -2999984
    RHS1      c125      -1999990
    RHS1      c126      -2999977
    RHS1      c127      -1999971
    RHS1      c128      -2999995
    RHS1      c129      -1999992
    RHS1      c130      -2999983
    RHS1      c131      -1999987
    RHS1      c132      -2999990
    RHS1      c133      -1999984
    RHS1      c134      -2999989
    RHS1      c135      -1999987
    RHS1      c136      -2999977
    RHS1      c137      -1999992
    RHS1      c138      -2999991
    RHS1      c139      -1999977
    RHS1      c140      -2999989
    RHS1      c141      -1999990
    RHS1      c142      -2999993
    RHS1      c143      -1999977
    RHS1      c144      -2999989
    RHS1      c145      -1999988
    RHS1      c146      -2999977
    RHS1      c147      -1999993
    RHS1      c148      -2999988
    RHS1      c149      -1999989
    RHS1      c206      -999988
    RHS1      c207      12
    RHS1      c208      -999988
    RHS1      c209      12
    RHS1      c210      -999985
    RHS1      c211      15
    RHS1      c212      -999985
    RHS1      c213      15
    RHS1      c214      -999994
    RHS1      c215      6
    RHS1      c216      -999994
    RHS1      c217      6
    RHS1      c218      -999994
    RHS1      c219      6
    RHS1      c220      -999994
    RHS1      c221      6
BOUNDS
 BV BND1      y[0,0,3]
 BV BND1      y[0,0,4]
 BV BND1      y[0,1,0]
 BV BND1      y[0,1,2]
 BV BND1      y[0,2,3]
 BV BND1      y[0,2,4]
 BV BND1      y[1,0,2]
 BV BND1      y[1,0,3]
 BV BND1      y[1,1,2]
 BV BND1      y[1,1,3]
 BV BND1      y[1,2,1]
 BV BND1      y[1,2,4]
 BV BND1      y[2,0,1]
 BV BND1      y[2,0,4]
 BV BND1      y[2,1,1]
 BV BND1      y[2,1,2]
 BV BND1      y[2,2,0]
 BV BND1      y[2,2,2]
 BV BND1      y[3,0,1]
 BV BND1      y[3,0,4]
 BV BND1      y[3,1,0]
 BV BND1      y[3,1,2]
 BV BND1      y[3,2,0]
 BV BND1      y[3,2,2]
 BV BND1      x[0,0,0,0]
 BV BND1      x[0,0,0,1]
 BV BND1      x[0,0,0,2]
 BV BND1      x[0,0,1,0]
 BV BND1      x[0,0,1,1]
 BV BND1      x[0,0,1,2]
 BV BND1      x[0,0,2,0]
 BV BND1      x[0,0,2,1]
 BV BND1      x[0,0,2,2]
 BV BND1      x[0,0,3,0]
 BV BND1      x[0,0,3,1]
 BV BND1      x[0,0,3,2]
 BV BND1      x[0,1,0,0]
 BV BND1      x[0,1,0,1]
 BV BND1      x[0,1,0,2]
 BV BND1      x[0,1,1,0]
 BV BND1      x[0,1,1,1]
 BV BND1      x[0,1,1,2]
 BV BND1      x[0,1,2,0]
 BV BND1      x[0,1,2,1]
 BV BND1      x[0,1,2,2]
 BV BND1      x[0,1,3,0]
 BV BND1      x[0,1,3,1]
 BV BND1      x[0,1,3,2]
 BV BND1      x[0,2,0,0]
 BV BND1      x[0,2,0,1]
 BV BND1      x[0,2,0,2]
 BV BND1      x[0,2,1,0]
 BV BND1      x[0,2,1,1]
 BV BND1      x[0,2,1,2]
 BV BND1      x[0,2,2,0]
 BV BND1      x[0,2,2,1]
 BV BND1      x[0,2,2,2]
 BV BND1      x[0,2,3,0]
 BV BND1      x[0,2,3,1]
 BV BND1      x[0,2,3,2]
 BV BND1      x[1,0,0,0]
 BV BND1      x[1,0,0,1]
 BV BND1      x[1,0,0,2]
 BV BND1      x[1,0,1,0]
 BV BND1      x[1,0,1,1]
 BV BND1      x[1,0,1,2]
 BV BND1      x[1,0,2,0]
 BV BND1      x[1,0,2,1]
 BV BND1      x[1,0,2,2]
 BV BND1      x[1,0,3,0]
 BV BND1      x[1,0,3,1]
 BV BND1      x[1,0,3,2]
 BV BND1      x[1,1,0,0]
 BV BND1      x[1,1,0,1]
 BV BND1      x[1,1,0,2]
 BV BND1      x[1,1,1,0]
 BV BND1      x[1,1,1,1]
 BV BND1      x[1,1,1,2]
 BV BND1      x[1,1,2,0]
 BV BND1      x[1,1,2,1]
 BV BND1      x[1,1,2,2]
 BV BND1      x[1,1,3,0]
 BV BND1      x[1,1,3,1]
 BV BND1      x[1,1,3,2]
 BV BND1      x[1,2,0,0]
 BV BND1      x[1,2,0,1]
 BV BND1      x[1,2,0,2]
 BV BND1      x[1,2,1,0]
 BV BND1      x[1,2,1,1]
 BV BND1      x[1,2,1,2]
 BV BND1      x[1,2,2,0]
 BV BND1      x[1,2,2,1]
 BV BND1      x[1,2,2,2]
 BV BND1      x[1,2,3,0]
 BV BND1      x[1,2,3,1]
 BV BND1      x[1,2,3,2]
 BV BND1      x[2,0,0,0]
 BV BND1      x[2,0,0,1]
 BV BND1      x[2,0,0,2]
 BV BND1      x[2,0,1,0]
 BV BND1      x[2,0,1,1]
 BV BND1      x[2,0,1,2]
 BV BND1      x[2,0,2,0]
 BV BND1      x[2,0,2,1]
 BV BND1      x[2,0,2,2]
 BV BND1      x[2,0,3,0]
 BV BND1      x[2,0,3,1]
 BV BND1      x[2,0,3,2]
 BV BND1      x[2,1,0,0]
 BV BND1      x[2,1,0,1]
 BV BND1      x[2,1,0,2]
 BV BND1      x[2,1,1,0]
 BV BND1      x[2,1,1,1]
 BV BND1      x[2,1,1,2]
 BV BND1      x[2,1,2,0]
 BV BND1      x[2,1,2,1]
 BV BND1      x[2,1,2,2]
 BV BND1      x[2,1,3,0]
 BV BND1      x[2,1,3,1]
 BV BND1      x[2,1,3,2]
 BV BND1      x[2,2,0,0]
 BV BND1      x[2,2,0,1]
 BV BND1      x[2,2,0,2]
 BV BND1      x[2,2,1,0]
 BV BND1      x[2,2,1,1]
 BV BND1      x[2,2,1,2]
 BV BND1      x[2,2,2,0]
 BV BND1      x[2,2,2,1]
 BV BND1      x[2,2,2,2]
 BV BND1      x[2,2,3,0]
 BV BND1      x[2,2,3,1]
 BV BND1      x[2,2,3,2]
 BV BND1      x[3,0,0,0]
 BV BND1      x[3,0,0,1]
 BV BND1      x[3,0,0,2]
 BV BND1      x[3,0,1,0]
 BV BND1      x[3,0,1,1]
 BV BND1      x[3,0,1,2]
 BV BND1      x[3,0,2,0]
 BV BND1      x[3,0,2,1]
 BV BND1      x[3,0,2,2]
 BV BND1      x[3,0,3,0]
 BV BND1      x[3,0,3,1]
 BV BND1      x[3,0,3,2]
 BV BND1      x[3,1,0,0]
 BV BND1      x[3,1,0,1]
 BV BND1      x[3,1,0,2]
 BV BND1      x[3,1,1,0]
 BV BND1      x[3,1,1,1]
 BV BND1      x[3,1,1,2]
 BV BND1      x[3,1,2,0]
 BV BND1      x[3,1,2,1]
 BV BND1      x[3,1,2,2]
 BV BND1      x[3,1,3,0]
 BV BND1      x[3,1,3,1]
 BV BND1      x[3,1,3,2]
 BV BND1      x[3,2,0,0]
 BV BND1      x[3,2,0,1]
 BV BND1      x[3,2,0,2]
 BV BND1      x[3,2,1,0]
 BV BND1      x[3,2,1,1]
 BV BND1      x[3,2,1,2]
 BV BND1      x[3,2,2,0]
 BV BND1      x[3,2,2,1]
 BV BND1      x[3,2,2,2]
 BV BND1      x[3,2,3,0]
 BV BND1      x[3,2,3,1]
 BV BND1      x[3,2,3,2]
 LI BND1      Z_FO      0
 BV BND1      C193    
 BV BND1      C194    
 BV BND1      C195    
 BV BND1      C196    
 BV BND1      C197    
 BV BND1      C198    
 BV BND1      C199    
 BV BND1      C200    
QCMATRIX   OF_constraint
    s[0,0,3]  C193      -0.5
    C193      s[0,0,3]  -0.5
    s[0,0,4]  C194      -0.5
    C194      s[0,0,4]  -0.5
    s[1,0,2]  C195      -0.5
    C195      s[1,0,2]  -0.5
    s[1,0,3]  C196      -0.5
    C196      s[1,0,3]  -0.5
    s[2,0,1]  C197      -0.5
    C197      s[2,0,1]  -0.5
    s[2,0,4]  C198      -0.5
    C198      s[2,0,4]  -0.5
    s[3,0,1]  C199      -0.5
    C199      s[3,0,1]  -0.5
    s[3,0,4]  C200      -0.5
    C200      s[3,0,4]  -0.5
ENDATA
